WARNING: for repeatability, setting FPU to use double precision
============================[ Problem Statistics ]=============================
|                                                                             |
|  Number of variables:           100                                         |
|  Number of clauses:             449                                         |
|  Parse time:                   0.00 s                                       |
|  Eliminated clauses:           0.00 Mb                                      |
|  Simplification time:          0.00 s                                       |
|                                                                             |
============================[ Search Statistics ]==============================
| Conflicts |          ORIGINAL         |          LEARNT          | Progress |
|           |    Vars  Clauses Literals |    Limit  Clauses Lit/Cl |          |
===============================================================================
|       100 |      98      441     1326 |      161      100      7 |  0.010 % |
|       250 |      98      441     1326 |      177      168      6 |  0.020 % |
===============================================================================
restarts              : 3
conflicts             : 274            (89689 /sec)
decisions             : 357            (0.00 % random) (116858 /sec)
propagations          : 5939           (1944026 /sec)
conflict literals     : 1806           (16.19 % deleted)
Memory used           : 13.00 MB
CPU time              : 0.003055 s

SATISFIABLE
